Route #1: 65 69 88
Route #2: 91 56 95 50 34
Route #3: 39 36 42 45 79 0 53 78 14 12 10 0 32 28 26 29 31 71 93
Route #4: 6 8 46 4 7 0 52 74 58 75 77 25 57 0 90
Route #5: 64 23 49 22 0 20 19 18 48 21 24 0 55 2 5 3 1 100
Route #6: 92 62 33 27 30 76 67 0 84 85 63 89 51 83 66 0 81 72 37 35 43 70 61
Route #7: 11 15 9 99 0 87 97 59 86 0 98 60 73 47 17 16 13 82
Route #8: 44 40 38 41 0 68 54 96 94 80
Cost: 18311
Optimal: True
